certificates/rado_a13_c58_N53.cnf
c Rad2 upper bound instance: x1 + 13*x2 - x3 = 58, interval [1,53]
p cnf 53 430
1 5 8 0
-1 -5 -8 0
1 6 21 0
-1 -6 -21 0
1 7 34 0
-1 -7 -34 0
1 8 47 0
-1 -8 -47 0
2 5 9 0
-2 -5 -9 0
2 6 22 0
-2 -6 -22 0
2 7 35 0
-2 -7 -35 0
2 8 48 0
-2 -8 -48 0
3 5 10 0
-3 -5 -10 0
3 6 23 0
-3 -6 -23 0
3 7 36 0
-3 -7 -36 0
3 8 49 0
-3 -8 -49 0
4 5 11 0
-4 -5 -11 0
4 6 24 0
-4 -6 -24 0
4 7 37 0
-4 -7 -37 0
4 8 50 0
-4 -8 -50 0
5 12 0
-5 -12 0
5 6 25 0
-5 -6 -25 0
5 7 38 0
-5 -7 -38 0
5 8 51 0
-5 -8 -51 0
5 6 13 0
-5 -6 -13 0
6 26 0
-6 -26 0
6 7 39 0
-6 -7 -39 0
6 8 52 0
-6 -8 -52 0
1 4 7 0
-1 -4 -7 0
5 7 14 0
-5 -7 -14 0
6 7 27 0
-6 -7 -27 0
7 40 0
-7 -40 0
7 8 53 0
-7 -8 -53 0
2 4 8 0
-2 -4 -8 0
5 8 15 0
-5 -8 -15 0
6 8 28 0
-6 -8 -28 0
7 8 41 0
-7 -8 -41 0
3 4 9 0
-3 -4 -9 0
5 9 16 0
-5 -9 -16 0
6 9 29 0
-6 -9 -29 0
7 9 42 0
-7 -9 -42 0
4 10 0
-4 -10 0
5 10 17 0
-5 -10 -17 0
6 10 30 0
-6 -10 -30 0
7 10 43 0
-7 -10 -43 0
5 11 18 0
-5 -11 -18 0
6 11 31 0
-6 -11 -31 0
7 11 44 0
-7 -11 -44 0
4 6 12 0
-4 -6 -12 0
5 12 19 0
-5 -12 -19 0
6 12 32 0
-6 -12 -32 0
7 12 45 0
-7 -12 -45 0
4 7 13 0
-4 -7 -13 0
5 13 20 0
-5 -13 -20 0
6 13 33 0
-6 -13 -33 0
7 13 46 0
-7 -13 -46 0
4 8 14 0
-4 -8 -14 0
5 14 21 0
-5 -14 -21 0
6 14 34 0
-6 -14 -34 0
7 14 47 0
-7 -14 -47 0
4 9 15 0
-4 -9 -15 0
5 15 22 0
-5 -15 -22 0
6 15 35 0
-6 -15 -35 0
7 15 48 0
-7 -15 -48 0
4 10 16 0
-4 -10 -16 0
5 16 23 0
-5 -16 -23 0
6 16 36 0
-6 -16 -36 0
7 16 49 0
-7 -16 -49 0
4 11 17 0
-4 -11 -17 0
5 17 24 0
-5 -17 -24 0
6 17 37 0
-6 -17 -37 0
7 17 50 0
-7 -17 -50 0
4 12 18 0
-4 -12 -18 0
5 18 25 0
-5 -18 -25 0
6 18 38 0
-6 -18 -38 0
7 18 51 0
-7 -18 -51 0
4 13 19 0
-4 -13 -19 0
5 19 26 0
-5 -19 -26 0
6 19 39 0
-6 -19 -39 0
7 19 52 0
-7 -19 -52 0
1 3 20 0
-1 -3 -20 0
4 14 20 0
-4 -14 -20 0
5 20 27 0
-5 -20 -27 0
6 20 40 0
-6 -20 -40 0
7 20 53 0
-7 -20 -53 0
2 3 21 0
-2 -3 -21 0
4 15 21 0
-4 -15 -21 0
5 21 28 0
-5 -21 -28 0
6 21 41 0
-6 -21 -41 0
3 22 0
-3 -22 0
4 16 22 0
-4 -16 -22 0
5 22 29 0
-5 -22 -29 0
6 22 42 0
-6 -22 -42 0
3 4 23 0
-3 -4 -23 0
4 17 23 0
-4 -17 -23 0
5 23 30 0
-5 -23 -30 0
6 23 43 0
-6 -23 -43 0
3 5 24 0
-3 -5 -24 0
4 18 24 0
-4 -18 -24 0
5 24 31 0
-5 -24 -31 0
6 24 44 0
-6 -24 -44 0
3 6 25 0
-3 -6 -25 0
4 19 25 0
-4 -19 -25 0
5 25 32 0
-5 -25 -32 0
6 25 45 0
-6 -25 -45 0
3 7 26 0
-3 -7 -26 0
4 20 26 0
-4 -20 -26 0
5 26 33 0
-5 -26 -33 0
6 26 46 0
-6 -26 -46 0
3 8 27 0
-3 -8 -27 0
4 21 27 0
-4 -21 -27 0
5 27 34 0
-5 -27 -34 0
6 27 47 0
-6 -27 -47 0
3 9 28 0
-3 -9 -28 0
4 22 28 0
-4 -22 -28 0
5 28 35 0
-5 -28 -35 0
6 28 48 0
-6 -28 -48 0
3 10 29 0
-3 -10 -29 0
4 23 29 0
-4 -23 -29 0
5 29 36 0
-5 -29 -36 0
6 29 49 0
-6 -29 -49 0
3 11 30 0
-3 -11 -30 0
4 24 30 0
-4 -24 -30 0
5 30 37 0
-5 -30 -37 0
6 30 50 0
-6 -30 -50 0
3 12 31 0
-3 -12 -31 0
4 25 31 0
-4 -25 -31 0
5 31 38 0
-5 -31 -38 0
6 31 51 0
-6 -31 -51 0
3 13 32 0
-3 -13 -32 0
4 26 32 0
-4 -26 -32 0
5 32 39 0
-5 -32 -39 0
6 32 52 0
-6 -32 -52 0
1 2 33 0
-1 -2 -33 0
3 14 33 0
-3 -14 -33 0
4 27 33 0
-4 -27 -33 0
5 33 40 0
-5 -33 -40 0
6 33 53 0
-6 -33 -53 0
2 34 0
-2 -34 0
3 15 34 0
-3 -15 -34 0
4 28 34 0
-4 -28 -34 0
5 34 41 0
-5 -34 -41 0
2 3 35 0
-2 -3 -35 0
3 16 35 0
-3 -16 -35 0
4 29 35 0
-4 -29 -35 0
5 35 42 0
-5 -35 -42 0
2 4 36 0
-2 -4 -36 0
3 17 36 0
-3 -17 -36 0
4 30 36 0
-4 -30 -36 0
5 36 43 0
-5 -36 -43 0
2 5 37 0
-2 -5 -37 0
3 18 37 0
-3 -18 -37 0
4 31 37 0
-4 -31 -37 0
5 37 44 0
-5 -37 -44 0
2 6 38 0
-2 -6 -38 0
3 19 38 0
-3 -19 -38 0
4 32 38 0
-4 -32 -38 0
5 38 45 0
-5 -38 -45 0
2 7 39 0
-2 -7 -39 0
3 20 39 0
-3 -20 -39 0
4 33 39 0
-4 -33 -39 0
5 39 46 0
-5 -39 -46 0
2 8 40 0
-2 -8 -40 0
3 21 40 0
-3 -21 -40 0
4 34 40 0
-4 -34 -40 0
5 40 47 0
-5 -40 -47 0
2 9 41 0
-2 -9 -41 0
3 22 41 0
-3 -22 -41 0
4 35 41 0
-4 -35 -41 0
5 41 48 0
-5 -41 -48 0
2 10 42 0
-2 -10 -42 0
3 23 42 0
-3 -23 -42 0
4 36 42 0
-4 -36 -42 0
5 42 49 0
-5 -42 -49 0
2 11 43 0
-2 -11 -43 0
3 24 43 0
-3 -24 -43 0
4 37 43 0
-4 -37 -43 0
5 43 50 0
-5 -43 -50 0
2 12 44 0
-2 -12 -44 0
3 25 44 0
-3 -25 -44 0
4 38 44 0
-4 -38 -44 0
5 44 51 0
-5 -44 -51 0
2 13 45 0
-2 -13 -45 0
3 26 45 0
-3 -26 -45 0
4 39 45 0
-4 -39 -45 0
5 45 52 0
-5 -45 -52 0
1 46 0
-1 -46 0
2 14 46 0
-2 -14 -46 0
3 27 46 0
-3 -27 -46 0
4 40 46 0
-4 -40 -46 0
5 46 53 0
-5 -46 -53 0
1 2 47 0
-1 -2 -47 0
2 15 47 0
-2 -15 -47 0
3 28 47 0
-3 -28 -47 0
4 41 47 0
-4 -41 -47 0
1 3 48 0
-1 -3 -48 0
2 16 48 0
-2 -16 -48 0
3 29 48 0
-3 -29 -48 0
4 42 48 0
-4 -42 -48 0
1 4 49 0
-1 -4 -49 0
2 17 49 0
-2 -17 -49 0
3 30 49 0
-3 -30 -49 0
4 43 49 0
-4 -43 -49 0
1 5 50 0
-1 -5 -50 0
2 18 50 0
-2 -18 -50 0
3 31 50 0
-3 -31 -50 0
4 44 50 0
-4 -44 -50 0
1 6 51 0
-1 -6 -51 0
2 19 51 0
-2 -19 -51 0
3 32 51 0
-3 -32 -51 0
4 45 51 0
-4 -45 -51 0
1 7 52 0
-1 -7 -52 0
2 20 52 0
-2 -20 -52 0
3 33 52 0
-3 -33 -52 0
4 46 52 0
-4 -46 -52 0
1 8 53 0
-1 -8 -53 0
2 21 53 0
-2 -21 -53 0
3 34 53 0
-3 -34 -53 0
4 47 53 0
-4 -47 -53 0
