certificates/rado_a13_c58_N53.drat
-46 4 -53 0
-47 -53 0
d -4 -47 -53 0
-1 -48 -49 -52 -53 0
-46 -52 -53 0
-49 -52 -53 0
d -1 -48 -49 -52 -53 0
5 10 6 -3 7 0
6 -3 49 7 0
-52 -53 0
d -46 -52 -53 0
-1 52 0
-53 0
-4 -7 -8 0
-7 1 0
7 1 0
d 7 34 1 0
1 0
-46 0
52 0
5 0
-7 0
-12 0
-45 0
-50 0
-8 0
40 0
13 0
20 0
0
